
Gurobi 6.0.4 (win64) logging started 06/12/15 17:24:48

Read LP format model from file E:\Eigene Dateien\Downloads\Michi shit\VRPTWMS-master\VRPTWMS\instances\mip\fuel\N8-C_DV100-C_SV25_F5_8_No_1.lp
Reading time = 0.00 seconds
(null): 417 rows, 208 columns, 1715 nonzeros
Optimize a model with 417 rows, 208 columns and 1715 nonzeros
Model has 576 quadratic constraints
WARNING: Only barrier available for SOCP models
Coefficient statistics:
  Matrix range    [1e+00, 1e+02]
  Objective range [3e+00, 1e+03]
  Bounds range    [1e+00, 1e+02]
  RHS range       [1e+00, 1e+02]
Presolve removed 57 rows and 35 columns
Presolve time: 0.03s
Presolved: 1219 rows, 621 columns, 5872 nonzeros
Variable types: 411 continuous, 210 integer (168 binary)
Found heuristic solution: objective 8342.9800000
Optimize a model with 1219 rows, 621 columns and 5872 nonzeros
Coefficient statistics:
  Matrix range    [8e-01, 3e+03]
  Objective range [3e+00, 1e+03]
  Bounds range    [1e+00, 1e+02]
  RHS range       [1e+00, 2e+03]

Concurrent LP optimizer: dual simplex and barrier
Showing barrier log only...

Presolve removed 141 rows and 84 columns
Presolved: 1078 rows, 539 columns, 5276 nonzeros

Root barrier log...

Ordering time: 0.00s

Barrier performed 0 iterations in 0.05 seconds
Barrier solve interrupted - model solved by another algorithm


Solved with dual simplex
Solved in 57 iterations and 0.05 seconds
Optimal objective  1.183834028e+03

Root relaxation: objective 1.183834e+03, 57 iterations, 0.02 seconds

    Nodes    |    Current Node    |     Objective Bounds      |     Work
 Expl Unexpl |  Obj  Depth IntInf | Incumbent    BestBd   Gap | It/Node Time

     0     0 1183.83403    0   24 8342.98000 1183.83403  85.8%     -    0s
H    0     0                    5253.5500000 1183.83403  77.5%     -    0s
     0     0 2187.03000    0   10 5253.55000 2187.03000  58.4%     -    0s
     0     0 2193.20000    0   24 5253.55000 2193.20000  58.3%     -    0s
     0     0 2193.20000    0   25 5253.55000 2193.20000  58.3%     -    0s
     0     0 2193.20000    0   21 5253.55000 2193.20000  58.3%     -    0s
     0     0 2193.20000    0   21 5253.55000 2193.20000  58.3%     -    0s
     0     0 2193.20000    0   23 5253.55000 2193.20000  58.3%     -    0s
     0     0 2193.20000    0   23 5253.55000 2193.20000  58.3%     -    0s
     0     2 2193.20000    0   21 5253.55000 2193.20000  58.3%     -    0s
*  177   113              28    4406.9500000 2213.76650  49.8%  21.9    0s
H  232   160                    4389.0900000 2213.76650  49.6%  22.2    0s
H  293   203                    4359.7200000 2213.76650  49.2%  22.6    0s
H  336   216                    4340.6400000 2213.76650  49.0%  22.5    0s
*  500   270              25    4331.8900000 2228.68167  48.6%  23.5    0s
H  506   269                    4313.7500000 2228.68167  48.3%  23.4    0s
H  777   393                    4299.7200000 2259.52319  47.4%  23.0    0s
H  786   390                    4291.8800000 2259.52319  47.4%  22.8    0s
H  852   404                    4276.8800000 2274.98872  46.8%  22.8    0s
*  977   314              19    3319.4800000 2275.93409  31.4%  22.9    0s
H 1218   353                    3301.3100000 2279.02801  31.0%  22.1    0s
H 1244   356                    3300.0500000 2279.02801  30.9%  21.9    0s
H 1544   402                    3300.0100000 2292.96686  30.5%  22.1    0s

Cutting planes:
  Learned: 2
  Gomory: 2
  Cover: 220
  Implied bound: 165
  Clique: 8
  MIR: 34
  Mod-K: 2

Explored 7089 nodes (141206 simplex iterations) in 1.88 seconds
Thread count was 4 (of 4 available processors)

Optimal solution found (tolerance 1.00e-04)
Best objective 3.300010000000e+03, best bound 3.300010000000e+03, gap 0.0%
k_c1	83.0
k_c2	95.0
k_c3	100.0
k_c4	2.0
k_c5	100.0
k_c6	92.0
k_c7	96.0
k_c8	88.0
k_dN	-0.0
o_1	0.0
o_2	-0.0
o_3	-0.0
o_4	0.0
o_5	-0.0
o_6	1.0
o_7	0.0
o_8	1.0
p_1	0.0
p_2	1.0
p_3	-0.0
p_4	0.0
p_5	0.0
p_6	1.0000000000000107
p_7	0.0
p_8	1.0000000000000107
phi_c1	2.0
phi_c2	-0.0
phi_c3	3.0
phi_c4	2.0
phi_c5	3.0
phi_c6	0.0
phi_c7	2.0
phi_c8	2.0
phi_dN	-0.0
pi_c1	-0.0
pi_c2	5.000000000000011
pi_c3	-0.0
pi_c4	-0.0
pi_c5	-0.0
pi_c6	22.0
pi_c7	-0.0
pi_c8	8.00000000000001
pi_dN	-0.0
tauD_c1	60.000000000000156
tauD_c2	25.0
tauD_c3	5.0
tauD_c4	85.0
tauD_c5	5.0
tauD_c6	21.999999999999982
tauD_c7	11.999999999999982
tauD_c8	44.00000000000007
tauD_d0	-0.0
tauD_dN	100.0
tauS_c1	85.0
tauS_c2	62.00000000000007
tauS_c3	87.0
tauS_c4	86.0
tauS_c5	5.0
tauS_c6	21.999999999999574
tauS_c7	6.0
tauS_c8	39.00000000000064
tauS_d0	-0.0
tauS_dN	78.00000000000007
x_c1_dN	1.0
x_c2_c4	0.9999999999999895
x_c3_c2	1.0000000000000107
x_c4_dN	1.0
x_c5_c7	1.0
x_c6_c8	1.0
x_c7_c6	1.0
x_c8_c1	1.0
x_d0_c3	1.0
x_d0_c5	1.0
z_c2_dN	1.0
z_c6_c8	1.0000000000000107
z_c8_c2	1.0
z_d0_c6	1.0000000000000107
